STUDENTS = {Dana,Brenda,Lois,LeRoy,Rita,Caroline,Regina,Yvonne,Sheila,Michele,Edgar,Marlene,Tamara,Diane,Natalie,Victor,Ellen,Danny,Carrie,Laurence,Geraldine,Stacy,Kara,Michael,Kurt,Shirley,Albert,Ross,Don,Seth,Lynda,Pat,Jon,Wesley,Peter,Melanie,Ron,Holly,Debra,Alexander,Stacey,Tony,Rhonda,Maxine,Warren,Bill,Sam,Kerry,Patsy,Alvin};
T = 50;
LWB = 1;
UPB = 20;
apart = [|Dana,Brenda|Dana,Michael|Dana,Tony|Dana,Maxine|Brenda,Yvonne|Brenda,Diane|Lois,Stacey|LeRoy,Victor|LeRoy,Rhonda|Rita,Carrie|Rita,Kara|Regina,Pat|Regina,Maxine|Yvonne,Carrie|Yvonne,Albert|Yvonne,Ron|Sheila,Rhonda|Michele,Marlene|Michele,Michael|Michele,Kurt|Michele,Albert|Michele,Bill|Marlene,Kara|Marlene,Tony|Tamara,Wesley|Tamara,Bill|Natalie,Michael|Natalie,Kurt|Natalie,Shirley|Natalie,Kerry|Victor,Peter|Victor,Holly|Victor,Debra|Ellen,Michael|Ellen,Pat|Ellen,Peter|Ellen,Melanie|Ellen,Holly|Danny,Kara|Carrie,Michael|Carrie,Alexander|Geraldine,Bill|Geraldine,Patsy|Michael,Maxine|Kurt,Warren|Ross,Sam|Seth,Tony|Seth,Rhonda|Wesley,Holly|Ron,Tony|Ron,Sam|Ron,Patsy|Alexander,Sam|Rhonda,Sam|Sam,Alvin|];
together = [|Dana,Michele|Dana,Carrie|Brenda,Lynda|Brenda,Debra|Lois,Victor|Lois,Kerry|LeRoy,Lynda|Rita,Natalie|Caroline,Regina|Caroline,Shirley|Caroline,Melanie|Caroline,Sam|Caroline,Kerry|Regina,Geraldine|Regina,Stacy|Yvonne,Tony|Yvonne,Patsy|Sheila,Kara|Sheila,Jon|Michele,Laurence|Michele,Shirley|Marlene,Diane|Marlene,Seth|Marlene,Kerry|Tamara,Shirley|Diane,Natalie|Natalie,Laurence|Victor,Laurence|Victor,Ron|Danny,Carrie|Danny,Debra|Carrie,Melanie|Carrie,Bill|Carrie,Sam|Geraldine,Don|Geraldine,Ron|Stacy,Alvin|Kara,Jon|Kara,Peter|Kara,Stacey|Michael,Shirley|Michael,Holly|Ross,Holly|Ross,Bill|Don,Stacey|Don,Maxine|Pat,Debra|Wesley,Sam|Melanie,Patsy|Stacey,Warren|Tony,Rhonda|Maxine,Bill|];
